1352246
36,62,30,29,95,20,19,74,9,55,5,40,76,68,17,48,92,61,59,31,73,12,67,98,37,44,83,51,42,23,33,70,27,45,64,10,22,60,14,66,57,81,15,82,87,35,71,54,43,52,90,34,96,41,7,88,84,1,63,4,2,26,75,49,79,86,85,65,3,80,39,28,24,16,58,18,89,97,53,11,25,50,77,93,78,72,21,38,91,13,6,94,56,8,32,46,0,69,47